p wcnf 10 38 167
167 1 2 0
167 1 3 0
167 1 5 0
167 1 7 0
167 1 8 0
167 2 3 0
167 2 4 0
167 2 5 0
167 2 6 0
167 2 7 0
167 2 8 0
167 3 6 0
167 3 7 0
167 3 8 0
167 3 9 0
167 4 5 0
167 4 6 0
167 4 8 0
167 4 9 0
167 4 10 0
167 5 6 0
167 5 7 0
167 5 10 0
167 6 7 0
167 7 8 0
167 7 10 0
167 8 10 0
167 9 10 0
6 -1 0
4 -2 0
5 -3 0
5 -4 0
5 -5 0
6 -6 0
4 -7 0
5 -8 0
8 -9 0
6 -10 0
